x = 17;
y = 18;
c = 63;
n = 24;

p = [77  87  75  33  25  61  93  15  24  55  67  29  85  82  21  50  24  47  36  69  88  83  12  74];
w = [6  5  1  10  6  10  7  7  7  4  2  5  7  10  6  8  1  7  9  5  10  8  2  3];
s = [1  12  12  2  14  9  10  2  17  1  1  14  4  17  5  1  9  14  3  10  15  10  11  5];
